# Solution for model GNN
# Objective value = 1.9610853503619876e+00
A[0,0] 1
A[0,1] 1
A[0,2] 0
A[0,3] 0
A[1,0] 1
A[1,1] 1
A[1,2] 1
A[1,3] 1
A[2,0] 0
A[2,1] 1
A[2,2] 1
A[2,3] 0
A[3,0] 0
A[3,1] 1
A[3,2] 0
A[3,3] 1
x[0,0] 0
x[0,1] 1
x[0,2] 0
x[0,3] 0
x[0,4] 0
x[0,5] 1
x[0,6] 0
x[0,7] 0
x[0,8] 0
x[0,9] 0
x[0,10] 1
x[0,11] 0
x[0,12] 0
x[0,13] 0
x[1,0] 1
x[1,1] 0
x[1,2] 0
x[1,3] 0
x[1,4] 0
x[1,5] 0
x[1,6] 0
x[1,7] 1
x[1,8] 0
x[1,9] 0
x[1,10] 1
x[1,11] 0
x[1,12] 0
x[1,13] 0
x[2,0] 0
x[2,1] 1
x[2,2] 0
x[2,3] 0
x[2,4] 0
x[2,5] 1
x[2,6] 0
x[2,7] 0
x[2,8] 0
x[2,9] 0
x[2,10] 1
x[2,11] 0
x[2,12] 0
x[2,13] 0
x[3,0] 0
x[3,1] 1
x[3,2] 0
x[3,3] 0
x[3,4] 0
x[3,5] 1
x[3,6] 0
x[3,7] 0
x[3,8] 0
x[3,9] 0
x[3,10] 1
x[3,11] 0
x[3,12] 0
x[3,13] 0
c[0,0,0] 0
c[0,0,1] 0
c[0,0,2] 0
c[0,0,3] 0
c[0,0,4] 0
c[0,0,5] 0
c[0,0,6] 0
c[0,0,7] 0
c[0,0,8] 0
c[0,0,9] 0
c[0,0,10] 0
c[0,0,11] 0
c[0,0,12] 1
c[0,0,13] 0
c[0,0,14] 0
c[0,0,15] 0
c[0,0,16] 0
c[0,0,17] 0
c[0,0,18] 0
c[0,0,19] 0
c[0,0,20] 0
c[0,0,21] 0
c[0,0,22] 0
c[0,0,23] 0
c[0,0,24] 0
c[0,1,0] 0
c[0,1,1] 0
c[0,1,2] 0
c[0,1,3] 0
c[0,1,4] 0
c[0,1,5] 0
c[0,1,6] 0
c[0,1,7] 0
c[0,1,8] 0
c[0,1,9] 0
c[0,1,10] 0
c[0,1,11] 0
c[0,1,12] 0
c[0,1,13] 0
c[0,1,14] 1
c[0,1,15] 0
c[0,1,16] 0
c[0,1,17] 0
c[0,1,18] 0
c[0,1,19] 0
c[0,1,20] 0
c[0,1,21] 0
c[0,1,22] 0
c[0,1,23] 0
c[0,1,24] 0
c[0,2,0] 0
c[0,2,1] 0
c[0,2,2] 0
c[0,2,3] 0
c[0,2,4] 0
c[0,2,5] 0
c[0,2,6] 0
c[0,2,7] 0
c[0,2,8] 0
c[0,2,9] 0
c[0,2,10] 0
c[0,2,11] 0
c[0,2,12] 1
c[0,2,13] 0
c[0,2,14] 0
c[0,2,15] 0
c[0,2,16] 0
c[0,2,17] 0
c[0,2,18] 0
c[0,2,19] 0
c[0,2,20] 0
c[0,2,21] 0
c[0,2,22] 0
c[0,2,23] 0
c[0,2,24] 0
c[0,3,0] 0
c[0,3,1] 0
c[0,3,2] 0
c[0,3,3] 0
c[0,3,4] 0
c[0,3,5] 0
c[0,3,6] 0
c[0,3,7] 0
c[0,3,8] 0
c[0,3,9] 0
c[0,3,10] 0
c[0,3,11] 0
c[0,3,12] 1
c[0,3,13] 0
c[0,3,14] 0
c[0,3,15] 0
c[0,3,16] 0
c[0,3,17] 0
c[0,3,18] 0
c[0,3,19] 0
c[0,3,20] 0
c[0,3,21] 0
c[0,3,22] 0
c[0,3,23] 0
c[0,3,24] 0
c[1,0,0] 0
c[1,0,1] 0
c[1,0,2] 0
c[1,0,3] 0
c[1,0,4] 0
c[1,0,5] 0
c[1,0,6] 0
c[1,0,7] 0
c[1,0,8] 0
c[1,0,9] 0
c[1,0,10] 0
c[1,0,11] 0
c[1,0,12] 0
c[1,0,13] 0
c[1,0,14] 0
c[1,0,15] 0
c[1,0,16] 0
c[1,0,17] 0
c[1,0,18] 0
c[1,0,19] 0
c[1,0,20] 0
c[1,0,21] 0
c[1,0,22] 1
c[1,0,23] 0
c[1,0,24] 0
c[1,1,0] 0
c[1,1,1] 0
c[1,1,2] 0
c[1,1,3] 0
c[1,1,4] 0
c[1,1,5] 0
c[1,1,6] 0
c[1,1,7] 0
c[1,1,8] 0
c[1,1,9] 0
c[1,1,10] 0
c[1,1,11] 0
c[1,1,12] 0
c[1,1,13] 0
c[1,1,14] 0
c[1,1,15] 0
c[1,1,16] 0
c[1,1,17] 0
c[1,1,18] 0
c[1,1,19] 0
c[1,1,20] 0
c[1,1,21] 0
c[1,1,22] 0
c[1,1,23] 0
c[1,1,24] 1
c[1,2,0] 0
c[1,2,1] 0
c[1,2,2] 0
c[1,2,3] 0
c[1,2,4] 0
c[1,2,5] 0
c[1,2,6] 0
c[1,2,7] 0
c[1,2,8] 0
c[1,2,9] 0
c[1,2,10] 0
c[1,2,11] 0
c[1,2,12] 0
c[1,2,13] 0
c[1,2,14] 0
c[1,2,15] 0
c[1,2,16] 0
c[1,2,17] 0
c[1,2,18] 0
c[1,2,19] 0
c[1,2,20] 0
c[1,2,21] 0
c[1,2,22] 1
c[1,2,23] 0
c[1,2,24] 0
c[1,3,0] 0
c[1,3,1] 0
c[1,3,2] 0
c[1,3,3] 0
c[1,3,4] 0
c[1,3,5] 0
c[1,3,6] 0
c[1,3,7] 0
c[1,3,8] 0
c[1,3,9] 0
c[1,3,10] 0
c[1,3,11] 0
c[1,3,12] 0
c[1,3,13] 0
c[1,3,14] 0
c[1,3,15] 0
c[1,3,16] 0
c[1,3,17] 0
c[1,3,18] 0
c[1,3,19] 0
c[1,3,20] 0
c[1,3,21] 0
c[1,3,22] 1
c[1,3,23] 0
c[1,3,24] 0
c[2,0,0] 0
c[2,0,1] 0
c[2,0,2] 0
c[2,0,3] 0
c[2,0,4] 0
c[2,0,5] 0
c[2,0,6] 0
c[2,0,7] 0
c[2,0,8] 0
c[2,0,9] 0
c[2,0,10] 0
c[2,0,11] 0
c[2,0,12] 1
c[2,0,13] 0
c[2,0,14] 0
c[2,0,15] 0
c[2,0,16] 0
c[2,0,17] 0
c[2,0,18] 0
c[2,0,19] 0
c[2,0,20] 0
c[2,0,21] 0
c[2,0,22] 0
c[2,0,23] 0
c[2,0,24] 0
c[2,1,0] 0
c[2,1,1] 0
c[2,1,2] 0
c[2,1,3] 0
c[2,1,4] 0
c[2,1,5] 0
c[2,1,6] 0
c[2,1,7] 0
c[2,1,8] 0
c[2,1,9] 0
c[2,1,10] 0
c[2,1,11] 0
c[2,1,12] 0
c[2,1,13] 0
c[2,1,14] 1
c[2,1,15] 0
c[2,1,16] 0
c[2,1,17] 0
c[2,1,18] 0
c[2,1,19] 0
c[2,1,20] 0
c[2,1,21] 0
c[2,1,22] 0
c[2,1,23] 0
c[2,1,24] 0
c[2,2,0] 0
c[2,2,1] 0
c[2,2,2] 0
c[2,2,3] 0
c[2,2,4] 0
c[2,2,5] 0
c[2,2,6] 0
c[2,2,7] 0
c[2,2,8] 0
c[2,2,9] 0
c[2,2,10] 0
c[2,2,11] 0
c[2,2,12] 1
c[2,2,13] 0
c[2,2,14] 0
c[2,2,15] 0
c[2,2,16] 0
c[2,2,17] 0
c[2,2,18] 0
c[2,2,19] 0
c[2,2,20] 0
c[2,2,21] 0
c[2,2,22] 0
c[2,2,23] 0
c[2,2,24] 0
c[2,3,0] 0
c[2,3,1] 0
c[2,3,2] 0
c[2,3,3] 0
c[2,3,4] 0
c[2,3,5] 0
c[2,3,6] 0
c[2,3,7] 0
c[2,3,8] 0
c[2,3,9] 0
c[2,3,10] 0
c[2,3,11] 0
c[2,3,12] 1
c[2,3,13] 0
c[2,3,14] 0
c[2,3,15] 0
c[2,3,16] 0
c[2,3,17] 0
c[2,3,18] 0
c[2,3,19] 0
c[2,3,20] 0
c[2,3,21] 0
c[2,3,22] 0
c[2,3,23] 0
c[2,3,24] 0
c[3,0,0] 0
c[3,0,1] 0
c[3,0,2] 0
c[3,0,3] 0
c[3,0,4] 0
c[3,0,5] 0
c[3,0,6] 0
c[3,0,7] 0
c[3,0,8] 0
c[3,0,9] 0
c[3,0,10] 0
c[3,0,11] 0
c[3,0,12] 1
c[3,0,13] 0
c[3,0,14] 0
c[3,0,15] 0
c[3,0,16] 0
c[3,0,17] 0
c[3,0,18] 0
c[3,0,19] 0
c[3,0,20] 0
c[3,0,21] 0
c[3,0,22] 0
c[3,0,23] 0
c[3,0,24] 0
c[3,1,0] 0
c[3,1,1] 0
c[3,1,2] 0
c[3,1,3] 0
c[3,1,4] 0
c[3,1,5] 0
c[3,1,6] 0
c[3,1,7] 0
c[3,1,8] 0
c[3,1,9] 0
c[3,1,10] 0
c[3,1,11] 0
c[3,1,12] 0
c[3,1,13] 0
c[3,1,14] 1
c[3,1,15] 0
c[3,1,16] 0
c[3,1,17] 0
c[3,1,18] 0
c[3,1,19] 0
c[3,1,20] 0
c[3,1,21] 0
c[3,1,22] 0
c[3,1,23] 0
c[3,1,24] 0
c[3,2,0] 0
c[3,2,1] 0
c[3,2,2] 0
c[3,2,3] 0
c[3,2,4] 0
c[3,2,5] 0
c[3,2,6] 0
c[3,2,7] 0
c[3,2,8] 0
c[3,2,9] 0
c[3,2,10] 0
c[3,2,11] 0
c[3,2,12] 1
c[3,2,13] 0
c[3,2,14] 0
c[3,2,15] 0
c[3,2,16] 0
c[3,2,17] 0
c[3,2,18] 0
c[3,2,19] 0
c[3,2,20] 0
c[3,2,21] 0
c[3,2,22] 0
c[3,2,23] 0
c[3,2,24] 0
c[3,3,0] 0
c[3,3,1] 0
c[3,3,2] 0
c[3,3,3] 0
c[3,3,4] 0
c[3,3,5] 0
c[3,3,6] 0
c[3,3,7] 0
c[3,3,8] 0
c[3,3,9] 0
c[3,3,10] 0
c[3,3,11] 0
c[3,3,12] 1
c[3,3,13] 0
c[3,3,14] 0
c[3,3,15] 0
c[3,3,16] 0
c[3,3,17] 0
c[3,3,18] 0
c[3,3,19] 0
c[3,3,20] 0
c[3,3,21] 0
c[3,3,22] 0
c[3,3,23] 0
c[3,3,24] 0
b[0,0,0] 0
b[0,0,1] 0
b[0,0,2] 0
b[0,0,3] 0
b[0,0,4] 0
b[0,0,5] 0
b[0,0,6] 0
b[0,0,7] 0
b[0,0,8] 0
b[0,0,9] 0
b[0,0,10] 0
b[0,0,11] 0
b[0,0,12] 0
b[0,0,13] 0
b[0,1,0] 0
b[0,1,1] 0
b[0,1,2] 0
b[0,1,3] 0
b[0,1,4] 0
b[0,1,5] 0
b[0,1,6] 0
b[0,1,7] 0
b[0,1,8] 0
b[0,1,9] 0
b[0,1,10] 0
b[0,1,11] 0
b[0,1,12] 0
b[0,1,13] 0
b[0,2,0] 0
b[0,2,1] 0
b[0,2,2] 0
b[0,2,3] 0
b[0,2,4] 0
b[0,2,5] 0
b[0,2,6] 0
b[0,2,7] 0
b[0,2,8] 0
b[0,2,9] 0
b[0,2,10] 0
b[0,2,11] 0
b[0,2,12] 0
b[0,2,13] 0
b[0,3,0] 0
b[0,3,1] 0
b[0,3,2] 0
b[0,3,3] 0
b[0,3,4] 0
b[0,3,5] 0
b[0,3,6] 0
b[0,3,7] 0
b[0,3,8] 0
b[0,3,9] 0
b[0,3,10] 0
b[0,3,11] 0
b[0,3,12] 0
b[0,3,13] 0
b[1,0,0] 0
b[1,0,1] 0
b[1,0,2] 0
b[1,0,3] 0
b[1,0,4] 0
b[1,0,5] 0
b[1,0,6] 0
b[1,0,7] 0
b[1,0,8] 0
b[1,0,9] 0
b[1,0,10] 0
b[1,0,11] 0
b[1,0,12] 0
b[1,0,13] 0
b[1,1,0] 0
b[1,1,1] 0
b[1,1,2] 0
b[1,1,3] 0
b[1,1,4] 0
b[1,1,5] 0
b[1,1,6] 0
b[1,1,7] 0
b[1,1,8] 0
b[1,1,9] 0
b[1,1,10] 0
b[1,1,11] 0
b[1,1,12] 0
b[1,1,13] 0
b[1,2,0] 0
b[1,2,1] 0
b[1,2,2] 0
b[1,2,3] 0
b[1,2,4] 0
b[1,2,5] 0
b[1,2,6] 0
b[1,2,7] 0
b[1,2,8] 0
b[1,2,9] 0
b[1,2,10] 0
b[1,2,11] 0
b[1,2,12] 0
b[1,2,13] 0
b[1,3,0] 0
b[1,3,1] 0
b[1,3,2] 0
b[1,3,3] 0
b[1,3,4] 0
b[1,3,5] 0
b[1,3,6] 0
b[1,3,7] 0
b[1,3,8] 0
b[1,3,9] 0
b[1,3,10] 0
b[1,3,11] 0
b[1,3,12] 0
b[1,3,13] 0
b[2,0,0] 0
b[2,0,1] 0
b[2,0,2] 0
b[2,0,3] 0
b[2,0,4] 0
b[2,0,5] 0
b[2,0,6] 0
b[2,0,7] 0
b[2,0,8] 0
b[2,0,9] 0
b[2,0,10] 0
b[2,0,11] 0
b[2,0,12] 0
b[2,0,13] 0
b[2,1,0] 0
b[2,1,1] 0
b[2,1,2] 0
b[2,1,3] 0
b[2,1,4] 0
b[2,1,5] 0
b[2,1,6] 0
b[2,1,7] 0
b[2,1,8] 0
b[2,1,9] 0
b[2,1,10] 0
b[2,1,11] 0
b[2,1,12] 0
b[2,1,13] 0
b[2,2,0] 0
b[2,2,1] 0
b[2,2,2] 0
b[2,2,3] 0
b[2,2,4] 0
b[2,2,5] 0
b[2,2,6] 0
b[2,2,7] 0
b[2,2,8] 0
b[2,2,9] 0
b[2,2,10] 0
b[2,2,11] 0
b[2,2,12] 0
b[2,2,13] 0
b[2,3,0] 0
b[2,3,1] 0
b[2,3,2] 0
b[2,3,3] 0
b[2,3,4] 0
b[2,3,5] 0
b[2,3,6] 0
b[2,3,7] 0
b[2,3,8] 0
b[2,3,9] 0
b[2,3,10] 0
b[2,3,11] 0
b[2,3,12] 0
b[2,3,13] 0
b[3,0,0] 0
b[3,0,1] 0
b[3,0,2] 0
b[3,0,3] 0
b[3,0,4] 0
b[3,0,5] 0
b[3,0,6] 0
b[3,0,7] 0
b[3,0,8] 0
b[3,0,9] 0
b[3,0,10] 0
b[3,0,11] 0
b[3,0,12] 0
b[3,0,13] 0
b[3,1,0] 0
b[3,1,1] 0
b[3,1,2] 0
b[3,1,3] 0
b[3,1,4] 0
b[3,1,5] 0
b[3,1,6] 0
b[3,1,7] 0
b[3,1,8] 0
b[3,1,9] 0
b[3,1,10] 0
b[3,1,11] 0
b[3,1,12] 0
b[3,1,13] 0
b[3,2,0] 0
b[3,2,1] 0
b[3,2,2] 0
b[3,2,3] 0
b[3,2,4] 0
b[3,2,5] 0
b[3,2,6] 0
b[3,2,7] 0
b[3,2,8] 0
b[3,2,9] 0
b[3,2,10] 0
b[3,2,11] 0
b[3,2,12] 0
b[3,2,13] 0
b[3,3,0] 0
b[3,3,1] 0
b[3,3,2] 0
b[3,3,3] 0
b[3,3,4] 0
b[3,3,5] 0
b[3,3,6] 0
b[3,3,7] 0
b[3,3,8] 0
b[3,3,9] 0
b[3,3,10] 0
b[3,3,11] 0
b[3,3,12] 0
b[3,3,13] 0
sp[0,0] 5.0000000000000022e-01
sp[0,1] 3.5355339059327373e-01
sp[0,2] 4.9999999999999989e-01
sp[0,3] 4.9999999999999989e-01
sp[1,0] 3.5355339059327373e-01
sp[1,1] 2.5000000000000011e-01
sp[1,2] 3.5355339059327373e-01
sp[1,3] 3.5355339059327912e-01
sp[2,0] 4.9999999999999989e-01
sp[2,1] 3.5355339059327373e-01
sp[2,2] 0.5
sp[2,3] 4.9999999999999989e-01
sp[3,0] 4.9999999999999989e-01
sp[3,1] 3.5355339059327912e-01
sp[3,2] 4.9999999999999989e-01
sp[3,3] 0.5
d_plus[0] 2
d_plus[1] 4
d_plus[2] 2
d_plus[3] 2
p[0,0] 12
p[0,1] 14
p[0,2] 12
p[0,3] 12
p[1,0] 22
p[1,1] 24
p[1,2] 22
p[1,3] 22
p[2,0] 12
p[2,1] 14
p[2,2] 12
p[2,3] 12
p[3,0] 12
p[3,1] 14
p[3,2] 12
p[3,3] 12
t[0,0] 5.0000000000000022e-01
t[0,1] 3.5355339059327373e-01
t[0,2] 0
t[0,3] 0
t[1,0] 3.5355339059327373e-01
t[1,1] 2.5000000000000011e-01
t[1,2] 3.5355339059327739e-01
t[1,3] 3.5355339059327939e-01
t[2,0] 0
t[2,1] 3.5355339059327739e-01
t[2,2] 0.5
t[2,3] 0
t[3,0] 0
t[3,1] 3.5355339059327839e-01
t[3,2] 0
t[3,3] 0.5
h_prime[0,0] 0
h_prime[0,1] 0
h_prime[0,2] 3.8905385188159980e-01
h_prime[0,3] 0
h_prime[0,4] 1.9325977645956349e-01
h_prime[0,5] 0
h_prime[0,6] 0
h_prime[0,7] 3.5829052915470949e-01
h_prime[0,8] 0
h_prime[0,9] 5.0539196449393764e-01
h_prime[0,10] 3.9843409792454776e-01
h_prime[0,11] 0
h_prime[0,12] 2.0722860423589552e-02
h_prime[0,13] 1.8567734596275232e-01
h_prime[0,14] 2.5969039408491390e-01
h_prime[0,15] 0
h_prime[0,16] 0
h_prime[0,17] 1.8703025013131250e-01
h_prime[0,18] 3.7210366546027868e-01
h_prime[0,19] 0
h_prime[0,20] 0.531426848977613
h_prime[0,21] 0
h_prime[0,22] 0
h_prime[0,23] 3.9824841606228267e-01
h_prime[0,24] 6.2838276071947918e-02
h_prime[0,25] 0
h_prime[0,26] 4.3217605306554785e-01
h_prime[0,27] 0
h_prime[0,28] 0
h_prime[0,29] 2.2812377949940887e-01
h_prime[0,30] 4.7910153974715985e-02
h_prime[0,31] 0
h_prime[1,0] 0
h_prime[1,1] 5.0470665028392467e-02
h_prime[1,2] 5.1927595307266072e-01
h_prime[1,3] 0
h_prime[1,4] 0.406861275713567
h_prime[1,5] 0
h_prime[1,6] 0
h_prime[1,7] 3.3164891892539505e-01
h_prime[1,8] 0
h_prime[1,9] 8.2519822999734549e-01
h_prime[1,10] 4.8615352618819840e-01
h_prime[1,11] 0
h_prime[1,12] 2.0320746209911880e-02
h_prime[1,13] 3.1295034698434077e-01
h_prime[1,14] 3.9564896049559550e-01
h_prime[1,15] 0
h_prime[1,16] 0
h_prime[1,17] 0.270866206260051
h_prime[1,18] 0.386182084245998
h_prime[1,19] 6.1214443639726224e-02
h_prime[1,20] 1.1071572495013582e+00
h_prime[1,21] 0
h_prime[1,22] 1.0717913073669622e-01
h_prime[1,23] 4.5779333172535930e-01
h_prime[1,24] 2.0240614459495759e-01
h_prime[1,25] 0
h_prime[1,26] 6.2642453138566623e-01
h_prime[1,27] 0
h_prime[1,28] 4.0718424927158769e-02
h_prime[1,29] 3.5397775871401649e-01
h_prime[1,30] 1.5581869816539673e-01
h_prime[1,31] 1.0834820964878966e-01
h_prime[2,0] 0
h_prime[2,1] 0
h_prime[2,2] 3.8905385188162556e-01
h_prime[2,3] 0
h_prime[2,4] 1.9325977645953396e-01
h_prime[2,5] 0
h_prime[2,6] 0
h_prime[2,7] 3.5829052915468140e-01
h_prime[2,8] 0
h_prime[2,9] 0.505391964493913
h_prime[2,10] 3.9843409792458384e-01
h_prime[2,11] 0
h_prime[2,12] 0.0207228604235635
h_prime[2,13] 1.8567734596278257e-01
h_prime[2,14] 2.5969039408495709e-01
h_prime[2,15] 0
h_prime[2,16] 0
h_prime[2,17] 1.8703025013133279e-01
h_prime[2,18] 3.7210366546031565e-01
h_prime[2,19] 0
h_prime[2,20] 5.3142684897766612e-01
h_prime[2,21] 0
h_prime[2,22] 0
h_prime[2,23] 3.9824841606226569e-01
h_prime[2,24] 6.2838276071987220e-02
h_prime[2,25] 0
h_prime[2,26] 4.3217605306558382e-01
h_prime[2,27] 0
h_prime[2,28] 0
h_prime[2,29] 2.2812377949937429e-01
h_prime[2,30] 4.7910153974741965e-02
h_prime[2,31] 0
h_prime[3,0] 0
h_prime[3,1] 0
h_prime[3,2] 3.8905385188165020e-01
h_prime[3,3] 0
h_prime[3,4] 1.9325977645955367e-01
h_prime[3,5] 0
h_prime[3,6] 0
h_prime[3,7] 3.5829052915470627e-01
h_prime[3,8] 0
h_prime[3,9] 5.0539196449393420e-01
h_prime[3,10] 3.9843409792460671e-01
h_prime[3,11] 0
h_prime[3,12] 2.0722860423549760e-02
h_prime[3,13] 1.8567734596281030e-01
h_prime[3,14] 2.5969039408499045e-01
h_prime[3,15] 0
h_prime[3,16] 0
h_prime[3,17] 1.8703025013134925e-01
h_prime[3,18] 3.7210366546033885e-01
h_prime[3,19] 0
h_prime[3,20] 5.3142684897769077e-01
h_prime[3,21] 0
h_prime[3,22] 0
h_prime[3,23] 3.9824841606228861e-01
h_prime[3,24] 6.2838276071962573e-02
h_prime[3,25] 0
h_prime[3,26] 4.3217605306560725e-01
h_prime[3,27] 0
h_prime[3,28] 0
h_prime[3,29] 2.2812377949939669e-01
h_prime[3,30] 4.7910153974753178e-02
h_prime[3,31] 0
s_0_0_GCN 3.2823691079192874e-01
z_0_0_GCN 0
s_0_1_GCN 7.6053211965850132e-02
z_0_1_GCN 0
s_0_2_GCN 0
z_0_2_GCN 1
s_0_3_GCN 2.6021122421233978e-01
z_0_3_GCN 0
s_0_4_GCN 0
z_0_4_GCN 1
s_0_5_GCN 3.2789626211944944e-01
z_0_5_GCN 0
s_0_6_GCN 0.133761745910137
z_0_6_GCN 0
s_0_7_GCN 0
z_0_7_GCN 1
s_0_8_GCN 0.0396263479095994
z_0_8_GCN 0
s_0_9_GCN 0
z_0_9_GCN 1
s_0_10_GCN 0
z_0_10_GCN 1
s_0_11_GCN 1.7385561600345995e-01
z_0_11_GCN 0
s_0_12_GCN 0
z_0_12_GCN 1
s_0_13_GCN 0
z_0_13_GCN 1
s_0_14_GCN 0
z_0_14_GCN 1
s_0_15_GCN 1.5764052339218826e-01
z_0_15_GCN 0
s_0_16_GCN 3.4129705478052125e-01
z_0_16_GCN 0
s_0_17_GCN 0
z_0_17_GCN 1
s_0_18_GCN 0
z_0_18_GCN 1
s_0_19_GCN 1.1509186616323719e-02
z_0_19_GCN 0
s_0_20_GCN 0
z_0_20_GCN 1
s_0_21_GCN 1.4673825438185495e-01
z_0_21_GCN 0
s_0_22_GCN 0.0771783135670967
z_0_22_GCN 0
s_0_23_GCN 0
z_0_23_GCN 1
s_0_24_GCN 0
z_0_24_GCN 1
s_0_25_GCN 2.2833338077275631e-01
z_0_25_GCN 0
s_0_26_GCN 0
z_0_26_GCN 1
s_0_27_GCN 2.6708674890112238e-01
z_0_27_GCN 0
s_0_28_GCN 2.0864000142496231e-02
z_0_28_GCN 0
s_0_29_GCN 0
z_0_29_GCN 1
s_0_30_GCN 0
z_0_30_GCN 1
s_0_31_GCN 1.5183006937165011e-02
z_0_31_GCN 0
s_1_0_GCN 0.37367319188936
z_1_0_GCN 0
s_1_1_GCN 0
z_1_1_GCN 1
s_1_2_GCN 0
z_1_2_GCN 1
s_1_3_GCN 7.4677074470025917e-01
z_1_3_GCN 0
s_1_4_GCN 0
z_1_4_GCN 1
s_1_5_GCN 5.7097122445505677e-01
z_1_5_GCN 0
s_1_6_GCN 2.9005437242333082e-01
z_1_6_GCN 0
s_1_7_GCN 0
z_1_7_GCN 1
s_1_8_GCN 1.2528518127305907e-01
z_1_8_GCN 0
s_1_9_GCN 0
z_1_9_GCN 1
s_1_10_GCN 0
z_1_10_GCN 1
s_1_11_GCN 3.8352750106220462e-01
z_1_11_GCN 0
s_1_12_GCN 0
z_1_12_GCN 1
s_1_13_GCN 0
z_1_13_GCN 1
s_1_14_GCN 0
z_1_14_GCN 1
s_1_15_GCN 3.5116430117656883e-01
z_1_15_GCN 0
s_1_16_GCN 4.8052349687242379e-01
z_1_16_GCN 0
s_1_17_GCN 0
z_1_17_GCN 1
s_1_18_GCN 0
z_1_18_GCN 1
s_1_19_GCN 0
z_1_19_GCN 1
s_1_20_GCN 0
z_1_20_GCN 1
s_1_21_GCN 1.9807917246833540e-01
z_1_21_GCN 0
s_1_22_GCN 0
z_1_22_GCN 1
s_1_23_GCN 0
z_1_23_GCN 1
s_1_24_GCN 0
z_1_24_GCN 1
s_1_25_GCN 4.5890302274003164e-01
z_1_25_GCN 0
s_1_26_GCN 0
z_1_26_GCN 1
s_1_27_GCN 6.0707725068773555e-01
z_1_27_GCN 0
s_1_28_GCN 0
z_1_28_GCN 1
s_1_29_GCN 0
z_1_29_GCN 1
s_1_30_GCN 0
z_1_30_GCN 1
s_1_31_GCN 0
z_1_31_GCN 1
s_2_0_GCN 3.2823691079189593e-01
z_2_0_GCN 0
s_2_1_GCN 0.0760532119659037
z_2_1_GCN 0
s_2_2_GCN 0
z_2_2_GCN 1
s_2_3_GCN 2.6021122421237980e-01
z_2_3_GCN 0
s_2_4_GCN 0
z_2_4_GCN 1
s_2_5_GCN 3.2789626211949285e-01
z_2_5_GCN 0
s_2_6_GCN 1.3376174591010762e-01
z_2_6_GCN 0
s_2_7_GCN 0
z_2_7_GCN 1
s_2_8_GCN 3.9626347909618775e-02
z_2_8_GCN 0
s_2_9_GCN 0
z_2_9_GCN 1
s_2_10_GCN 0
z_2_10_GCN 1
s_2_11_GCN 1.7385561600349292e-01
z_2_11_GCN 0
s_2_12_GCN 0
z_2_12_GCN 1
s_2_13_GCN 0
z_2_13_GCN 1
s_2_14_GCN 0
z_2_14_GCN 1
s_2_15_GCN 1.5764052339222751e-01
z_2_15_GCN 0
s_2_16_GCN 3.4129705478054656e-01
z_2_16_GCN 0
s_2_17_GCN 0
z_2_17_GCN 1
s_2_18_GCN 0
z_2_18_GCN 1
s_2_19_GCN 1.1509186616353528e-02
z_2_19_GCN 0
s_2_20_GCN 0
z_2_20_GCN 1
s_2_21_GCN 1.4673825438189098e-01
z_2_21_GCN 0
s_2_22_GCN 7.7178313567147910e-02
z_2_22_GCN 0
s_2_23_GCN 0
z_2_23_GCN 1
s_2_24_GCN 0
z_2_24_GCN 1
s_2_25_GCN 2.2833338077272528e-01
z_2_25_GCN 0
s_2_26_GCN 0
z_2_26_GCN 1
s_2_27_GCN 2.6708674890115874e-01
z_2_27_GCN 0
s_2_28_GCN 2.0864000142545303e-02
z_2_28_GCN 0
s_2_29_GCN 0
z_2_29_GCN 1
s_2_30_GCN 0
z_2_30_GCN 1
s_2_31_GCN 1.5183006937206991e-02
z_2_31_GCN 0
s_3_0_GCN 3.2823691079187928e-01
z_3_0_GCN 0
s_3_1_GCN 7.6053211965873668e-02
z_3_1_GCN 0
s_3_2_GCN 0
z_3_2_GCN 1
s_3_3_GCN 2.6021122421241177e-01
z_3_3_GCN 0
s_3_4_GCN 0
z_3_4_GCN 1
s_3_5_GCN 3.2789626211952555e-01
z_3_5_GCN 0
s_3_6_GCN 1.3376174591008461e-01
z_3_6_GCN 0
s_3_7_GCN 0
z_3_7_GCN 1
s_3_8_GCN 3.9626347909602122e-02
z_3_8_GCN 0
s_3_9_GCN 0
z_3_9_GCN 1
s_3_10_GCN 0
z_3_10_GCN 1
s_3_11_GCN 0.173855616003457
z_3_11_GCN 0
s_3_12_GCN 0
z_3_12_GCN 1
s_3_13_GCN 0
z_3_13_GCN 1
s_3_14_GCN 0
z_3_14_GCN 1
s_3_15_GCN 1.5764052339225759e-01
z_3_15_GCN 0
s_3_16_GCN 3.4129705478057504e-01
z_3_16_GCN 0
s_3_17_GCN 0
z_3_17_GCN 1
s_3_18_GCN 0
z_3_18_GCN 1
s_3_19_GCN 1.1509186616335321e-02
z_3_19_GCN 0
s_3_20_GCN 0
z_3_20_GCN 1
s_3_21_GCN 1.4673825438190929e-01
z_3_21_GCN 0
s_3_22_GCN 7.7178313567116685e-02
z_3_22_GCN 0
s_3_23_GCN 0
z_3_23_GCN 1
s_3_24_GCN 0
z_3_24_GCN 1
s_3_25_GCN 2.2833338077275256e-01
z_3_25_GCN 0
s_3_26_GCN 0
z_3_26_GCN 1
s_3_27_GCN 2.6708674890118173e-01
z_3_27_GCN 0
s_3_28_GCN 2.0864000142519989e-02
z_3_28_GCN 0
s_3_29_GCN 0
z_3_29_GCN 1
s_3_30_GCN 0
z_3_30_GCN 1
s_3_31_GCN 1.5183006937176780e-02
z_3_31_GCN 0
h[0] 0
h[1] 5.0470665028392196e-02
h[2] 1.6864375087175363e+00
h[3] 0
h[4] 9.8664060509221807e-01
h[5] 0
h[6] 0
h[7] 1.4065205063894923e+00
h[8] 0
h[9] 2.3413741234791305e+00
h[10] 1.6814558199619367e+00
h[11] 0
h[12] 8.2489327480614688e-02
h[13] 8.6998238487268587e-01
h[14] 1.1747201427504570e+00
h[15] 0
h[16] 0
h[17] 8.3195695665404557e-01
h[18] 1.5024930806269312e+00
h[19] 6.1214443639726224e-02
h[20] 2.7014377964343281e+00
h[21] 0
h[22] 1.0717913073669622e-01
h[23] 1.6525385799121963e+00
h[24] 3.9092097281085531e-01
h[25] 0
h[26] 1.9229526905824050e+00
h[27] 0
h[28] 4.0718424927158769e-02
h[29] 1.0383490972121963e+00
h[30] 2.9954916008960786e-01
h[31] 1.0834820964878966e-01
y 1.9610853503619876e+00
x_1_0_ANN 1.7253822073478622e+00
s_1_0_ANN 0
z_1_0_ANN 1
x_1_1_ANN 0
s_1_1_ANN 0.667709007204146
z_1_1_ANN 0
x_1_2_ANN 2.4525595623390228e-01
s_1_2_ANN 0
z_1_2_ANN 1
x_1_3_ANN 0
s_1_3_ANN 1.2559831334325526e+00
z_1_3_ANN 0
x_1_4_ANN 0
s_1_4_ANN 1.6974913165567713e+00
z_1_4_ANN 0
x_1_5_ANN 0
s_1_5_ANN 1.3207633681077775e+00
z_1_5_ANN 0
x_1_6_ANN 0
s_1_6_ANN 1.3501588538090328e+00
z_1_6_ANN 0
x_1_7_ANN 2.5301551695813407e+00
s_1_7_ANN 0
z_1_7_ANN 1
x_1_8_ANN 8.8214865081539529e-03
s_1_8_ANN 0
z_1_8_ANN 1
x_1_9_ANN 2.0015373098154838e+00
s_1_9_ANN 0
z_1_9_ANN 1
x_1_10_ANN 2.1882211394464091e+00
s_1_10_ANN 0
z_1_10_ANN 1
x_1_11_ANN 1.1920561805373166e-01
s_1_11_ANN 0
z_1_11_ANN 1
x_1_12_ANN 0
s_1_12_ANN 0.848579299723746
z_1_12_ANN 0
x_1_13_ANN 1.8168775044175367e+00
s_1_13_ANN 0
z_1_13_ANN 1
x_1_14_ANN 0
s_1_14_ANN 2.7204940275595751e-01
z_1_14_ANN 0
x_1_15_ANN 0
s_1_15_ANN 1.3628119476748655e+00
z_1_15_ANN 0
